<?xml version = "1.0" standalone="yes"?>
<!-- This file has been generated by DOcplex version 2.23.222  -->
<CPLEXSolution version="1.0">
 <header
   problemName="CVRP"
   objectiveValue="21505.2"
  />
 <variables>
  <variable name="x_0_1" index="0" value="1.00000"/>
  <variable name="x_0_2" index="1" value="1.00000"/>
  <variable name="x_0_3" index="2" value="1.00000"/>
  <variable name="x_0_5" index="4" value="1.00000"/>
  <variable name="x_0_6" index="5" value="1.00000"/>
  <variable name="x_0_8" index="7" value="1.00000"/>
  <variable name="x_0_9" index="8" value="1.00000"/>
  <variable name="x_0_10" index="9" value="1.00000"/>
  <variable name="x_0_12" index="11" value="1.00000"/>
  <variable name="x_0_13" index="12" value="1.00000"/>
  <variable name="x_0_16" index="15" value="1.00000"/>
  <variable name="x_0_17" index="16" value="1.00000"/>
  <variable name="x_0_19" index="18" value="1.00000"/>
  <variable name="x_0_22" index="21" value="1.00000"/>
  <variable name="x_0_25" index="24" value="1.00000"/>
  <variable name="x_1_0" index="25" value="1.00000"/>
  <variable name="x_2_20" index="69" value="1.00000"/>
  <variable name="x_3_0" index="75" value="1.00000"/>
  <variable name="x_4_0" index="100" value="1.00000"/>
  <variable name="x_5_24" index="148" value="1.00000"/>
  <variable name="x_6_0" index="150" value="1.00000"/>
  <variable name="x_7_0" index="175" value="1.00000"/>
  <variable name="x_8_21" index="220" value="1.00000"/>
  <variable name="x_9_14" index="238" value="1.00000"/>
  <variable name="x_10_0" index="250" value="1.00000"/>
  <variable name="x_11_0" index="275" value="1.00000"/>
  <variable name="x_12_0" index="300" value="1.00000"/>
  <variable name="x_13_15" index="339" value="1.00000"/>
  <variable name="x_14_0" index="350" value="1.00000"/>
  <variable name="x_15_0" index="375" value="1.00000"/>
  <variable name="x_16_18" index="417" value="1.00000"/>
  <variable name="x_17_4" index="429" value="1.00000"/>
  <variable name="x_18_0" index="450" value="1.00000"/>
  <variable name="x_19_23" index="497" value="1.00000"/>
  <variable name="x_20_0" index="500" value="1.00000"/>
  <variable name="x_21_0" index="525" value="1.00000"/>
  <variable name="x_22_7" index="557" value="1.00000"/>
  <variable name="x_23_0" index="575" value="1.00000"/>
  <variable name="x_24_11" index="611" value="1.00000"/>
  <variable name="x_25_0" index="625" value="1.00000"/>
  <variable name="u_1" index="650" value="51.00000"/>
  <variable name="u_2" index="651" value="44.00000"/>
  <variable name="u_3" index="652" value="76.00000"/>
  <variable name="u_4" index="653" value="72.00000"/>
  <variable name="u_5" index="654" value="21.00000"/>
  <variable name="u_6" index="655" value="75.00000"/>
  <variable name="u_7" index="656" value="76.00000"/>
  <variable name="u_8" index="657" value="39.00000"/>
  <variable name="u_9" index="658" value="15.00000"/>
  <variable name="u_10" index="659" value="70.00000"/>
  <variable name="u_11" index="660" value="76.00000"/>
  <variable name="u_12" index="661" value="52.00000"/>
  <variable name="u_13" index="662" value="43.00000"/>
  <variable name="u_14" index="663" value="76.00000"/>
  <variable name="u_15" index="664" value="71.00000"/>
  <variable name="u_16" index="665" value="44.00000"/>
  <variable name="u_17" index="666" value="22.00000"/>
  <variable name="u_18" index="667" value="74.00000"/>
  <variable name="u_19" index="668" value="27.00000"/>
  <variable name="u_20" index="669" value="76.00000"/>
  <variable name="u_21" index="670" value="74.00000"/>
  <variable name="u_22" index="671" value="40.00000"/>
  <variable name="u_23" index="672" value="54.00000"/>
  <variable name="u_24" index="673" value="75.00000"/>
  <variable name="u_25" index="674" value="62.00000"/>
 </variables>
</CPLEXSolution>
